decision_x1=[0,2];
decision_x2=[0,2];
decision_x3=[0,2];
decision_x4=[0,2];
decision_x5=[0,2];
decision_x6=[0,2];
random_y1=[0,2];
random_y2=[0,2];
constraint_x3_x1=[
0,0,0.68|
0,1,2.7|
0,2,0.55|
1,0,6.4|
1,1,0.73|
1,2,5.5|
2,0,4.2|
2,1,5|
2,2,6.7|
];
constraint_x3_x2=[
0,0,4.6|
0,1,7.4|
0,2,8|
1,0,5.5|
1,1,1.6|
1,2,1.2|
2,0,1.6|
2,1,2.1|
2,2,7.7|
];
constraint_x4_x2=[
0,0,4.5|
0,1,4.8|
0,2,3.6|
1,0,8.9|
1,1,7.3|
1,2,0.04|
2,0,3.5|
2,1,9.4|
2,2,5.7|
];
constraint_x5_x2=[
0,0,6.7|
0,1,0.71|
0,2,2|
1,0,0.022|
1,1,0.24|
1,2,3.9|
2,0,7.2|
2,1,8|
2,2,5.5|
];
constraint_x5_x3=[
0,0,4.6|
0,1,0.07|
0,2,4.5|
1,0,4.6|
1,1,5.6|
1,2,2|
2,0,5|
2,1,5.6|
2,2,7.5|
];
constraint_x5_x4=[
0,0,5|
0,1,2.9|
0,2,5.5|
1,0,1.2|
1,1,1.6|
1,2,6.2|
2,0,9.9|
2,1,0.19|
2,2,0.59|
];
constraint_x6_x1=[
0,0,8.2|
0,1,2.6|
0,2,7|
1,0,7.6|
1,1,7.9|
1,2,7.2|
2,0,9.1|
2,1,1.1|
2,2,5.3|
];
constraint_x6_x2=[
0,0,5.7|
0,1,7.4|
0,2,6.4|
1,0,9.6|
1,1,0.35|
1,2,9.3|
2,0,5.9|
2,1,7.6|
2,2,0.27|
];
constraint_x1_y1=[
0,0,8.1|
0,1,2.1|
0,2,3.2|
1,0,6.7|
1,1,3.5|
1,2,3.5|
2,0,1.2|
2,1,8.1|
2,2,8.5|
];
constraint_x2_y2=[
0,0,9.4|
0,1,0.032|
0,2,6.3|
1,0,2|
1,1,4.7|
1,2,8.9|
2,0,7.6|
2,1,3.9|
2,2,6.4|
];
initial_distribution_y1=[0.32,0.37,0.31];
initial_distribution_y2=[0.47,0.28,0.25];
transition_y1=[
0.47,0.27,0.26|
0.37,0.37,0.26|
0.49,0.25,0.26|
];
transition_y2=[
0.21,0.09,0.7|
0.15,0.4,0.45|
0.079,0.51,0.41|
];
